(set-info :source |printed by MathSAT|)
(declare-fun |!{$(in_main#0)<N>}| () Int)
(declare-fun |!{$(in_main#0)<N>}.next| () Int)
(declare-fun |!{$(in_main#0)<a>}| () Int)
(declare-fun |!{$(in_main#0)<a>}.next| () Int)
(declare-fun |!{$(in_main#0)<b>}| () Int)
(declare-fun |!{$(in_main#0)<b>}.next| () Int)
(declare-fun |!{$(in_main#0)<c>}| () Int)
(declare-fun |!{$(in_main#0)<c>}.next| () Int)
(declare-fun |!{$(in_main#0)<i>}| () Int)
(declare-fun |!{$(in_main#0)<i>}.next| () Int)
(declare-fun |!{$(in_main#0)<x>}| () Int)
(declare-fun |!{$(in_main#0)<x>}.next| () Int)
(declare-fun |!{$(in_main#0)<aa.1>}| () (Array Int Int))
(declare-fun |!{$(in_main#0)<aa.1>}.next| () (Array Int Int))
(declare-fun |!{$(in_main#0)<cc.2>}| () (Array Int Int))
(declare-fun |!{$(in_main#0)<cc.2>}.next| () (Array Int Int))
(declare-fun |!{$(in_main#0)<bb.3>}| () (Array Int Int))
(declare-fun |!{$(in_main#0)<bb.3>}.next| () (Array Int Int))
(declare-fun |!{$(in_main#0)<$(in___VERIFIER_nondet_int#0)<h#<__VERIFIER_nondet_int.return>>>}| () Int)
(declare-fun |!{$(in_main#0)<$(in___VERIFIER_nondet_int#1)<h#<__VERIFIER_nondet_int.return>>>}| () Int)
(declare-fun !pc () Int)
(declare-fun !pc.next () Int)
(declare-fun |%{$(in_main#0)<x>}#1| () Int)
(declare-fun |%{$(in_main#0)<aa.1>}#1| () (Array Int Int))
(declare-fun |%{$(in_main#0)<cc.2>}#1| () (Array Int Int))
(declare-fun |%{$(in_main#0)<bb.3>}#1| () (Array Int Int))
(declare-fun |%{$(in_main#0)<c>}#2| () Int)
(declare-fun |%{$(in_main#0)<cc.2>}#2| () (Array Int Int))
(declare-fun |%{$(in_main#0)<b>}#2| () Int)
(declare-fun |%{$(in_main#0)<bb.3>}#2| () (Array Int Int))
(define-fun .def_41 () Int (! !pc :next !pc.next))
(define-fun .def_44 () Bool (! (= .def_41 2) :init true))
(define-fun .def_280 () Bool (= .def_41 32))
(define-fun .def_254 () Bool (= !pc.next 51))
(define-fun .def_283 () Bool (and .def_254 .def_280))
(define-fun .def_10 () Int (! |!{$(in_main#0)<a>}| :next |!{$(in_main#0)<a>}.next|))
(define-fun .def_94 () Bool (= .def_10 |!{$(in_main#0)<a>}.next|))
(define-fun .def_8 () Int (! |!{$(in_main#0)<N>}| :next |!{$(in_main#0)<N>}.next|))
(define-fun .def_92 () Bool (= .def_8 |!{$(in_main#0)<N>}.next|))
(define-fun .def_111 () Bool (and .def_92 .def_94))
(define-fun .def_12 () Int (! |!{$(in_main#0)<b>}| :next |!{$(in_main#0)<b>}.next|))
(define-fun .def_96 () Bool (= .def_12 |!{$(in_main#0)<b>}.next|))
(define-fun .def_112 () Bool (and .def_96 .def_111))
(define-fun .def_14 () Int (! |!{$(in_main#0)<c>}| :next |!{$(in_main#0)<c>}.next|))
(define-fun .def_98 () Bool (= .def_14 |!{$(in_main#0)<c>}.next|))
(define-fun .def_113 () Bool (and .def_98 .def_112))
(define-fun .def_16 () Int (! |!{$(in_main#0)<i>}| :next |!{$(in_main#0)<i>}.next|))
(define-fun .def_100 () Bool (= .def_16 |!{$(in_main#0)<i>}.next|))
(define-fun .def_114 () Bool (and .def_100 .def_113))
(define-fun .def_18 () Int (! |!{$(in_main#0)<x>}| :next |!{$(in_main#0)<x>}.next|))
(define-fun .def_102 () Bool (= .def_18 |!{$(in_main#0)<x>}.next|))
(define-fun .def_275 () Bool (and .def_102 .def_114))
(define-fun .def_20 () (Array Int Int) (! |!{$(in_main#0)<aa.1>}| :next |!{$(in_main#0)<aa.1>}.next|))
(define-fun .def_104 () Bool (= .def_20 |!{$(in_main#0)<aa.1>}.next|))
(define-fun .def_276 () Bool (and .def_104 .def_275))
(define-fun .def_22 () (Array Int Int) (! |!{$(in_main#0)<cc.2>}| :next |!{$(in_main#0)<cc.2>}.next|))
(define-fun .def_106 () Bool (= .def_22 |!{$(in_main#0)<cc.2>}.next|))
(define-fun .def_277 () Bool (and .def_106 .def_276))
(define-fun .def_24 () (Array Int Int) (! |!{$(in_main#0)<bb.3>}| :next |!{$(in_main#0)<bb.3>}.next|))
(define-fun .def_108 () Bool (= .def_24 |!{$(in_main#0)<bb.3>}.next|))
(define-fun .def_278 () Bool (and .def_108 .def_277))
(define-fun .def_261 () Bool (<= .def_8 .def_16))
(define-fun .def_279 () Bool (and .def_261 .def_278))
(define-fun .def_284 () Bool (and .def_279 .def_283))
(define-fun .def_78 () Bool (= !pc.next 32))
(define-fun .def_281 () Bool (and .def_78 .def_280))
(define-fun .def_263 () (Array Int Int) (store .def_20 .def_16 |!{$(in_main#0)<$(in___VERIFIER_nondet_int#1)<h#<__VERIFIER_nondet_int.return>>>}|))
(define-fun .def_270 () Bool (= |!{$(in_main#0)<aa.1>}.next| .def_263))
(define-fun .def_265 () Int (* (- 1) |!{$(in_main#0)<i>}.next|))
(define-fun .def_266 () Int (+ .def_16 .def_265))
(define-fun .def_267 () Bool (= .def_266 (- 1)))
(define-fun .def_268 () Bool (and .def_113 .def_267))
(define-fun .def_269 () Bool (and .def_102 .def_268))
(define-fun .def_271 () Bool (and .def_269 .def_270))
(define-fun .def_272 () Bool (and .def_106 .def_271))
(define-fun .def_273 () Bool (and .def_108 .def_272))
(define-fun .def_262 () Bool (not .def_261))
(define-fun .def_274 () Bool (and .def_262 .def_273))
(define-fun .def_282 () Bool (and .def_274 .def_281))
(define-fun .def_285 () Bool (or .def_282 .def_284))
(define-fun .def_253 () Bool (= .def_41 51))
(define-fun .def_184 () Bool (= !pc.next 76))
(define-fun .def_257 () Bool (and .def_184 .def_253))
(define-fun .def_194 () Bool (<= .def_8 .def_10))
(define-fun .def_172 () Bool (= |!{$(in_main#0)<x>}.next| 0))
(define-fun .def_173 () Bool (and .def_114 .def_172))
(define-fun .def_174 () Bool (and .def_104 .def_173))
(define-fun .def_175 () Bool (and .def_106 .def_174))
(define-fun .def_176 () Bool (and .def_108 .def_175))
(define-fun .def_251 () Bool (and .def_176 .def_194))
(define-fun .def_258 () Bool (and .def_251 .def_257))
(define-fun .def_255 () Bool (and .def_253 .def_254))
(define-fun .def_247 () Bool (= |!{$(in_main#0)<bb.3>}.next| |%{$(in_main#0)<bb.3>}#2|))
(define-fun .def_245 () Bool (= |!{$(in_main#0)<cc.2>}.next| |%{$(in_main#0)<cc.2>}#2|))
(define-fun .def_240 () Bool (= |!{$(in_main#0)<c>}.next| |%{$(in_main#0)<c>}#2|))
(define-fun .def_238 () Bool (= |!{$(in_main#0)<b>}.next| |%{$(in_main#0)<b>}#2|))
(define-fun .def_234 () Int (* (- 1) |!{$(in_main#0)<a>}.next|))
(define-fun .def_235 () Int (+ .def_10 .def_234))
(define-fun .def_236 () Bool (= .def_235 (- 1)))
(define-fun .def_237 () Bool (and .def_92 .def_236))
(define-fun .def_239 () Bool (and .def_237 .def_238))
(define-fun .def_241 () Bool (and .def_239 .def_240))
(define-fun .def_242 () Bool (and .def_100 .def_241))
(define-fun .def_243 () Bool (and .def_102 .def_242))
(define-fun .def_244 () Bool (and .def_104 .def_243))
(define-fun .def_246 () Bool (and .def_244 .def_245))
(define-fun .def_248 () Bool (and .def_246 .def_247))
(define-fun .def_228 () Bool (= .def_24 |%{$(in_main#0)<bb.3>}#2|))
(define-fun .def_222 () Bool (= .def_12 |%{$(in_main#0)<b>}#2|))
(define-fun .def_196 () Int (select .def_20 .def_10))
(define-fun .def_201 () (Array Int Int) (store .def_22 .def_14 .def_196))
(define-fun .def_215 () Bool (= .def_201 |%{$(in_main#0)<cc.2>}#2|))
(define-fun .def_207 () Int (* (- 1) |%{$(in_main#0)<c>}#2|))
(define-fun .def_208 () Int (+ .def_14 .def_207))
(define-fun .def_209 () Bool (= .def_208 (- 1)))
(define-fun .def_197 () Bool (<= 0 .def_196))
(define-fun .def_200 () Bool (not .def_197))
(define-fun .def_211 () Bool (and .def_200 .def_209))
(define-fun .def_217 () Bool (and .def_211 .def_215))
(define-fun .def_224 () Bool (and .def_217 .def_222))
(define-fun .def_230 () Bool (and .def_224 .def_228))
(define-fun .def_198 () (Array Int Int) (store .def_24 .def_12 .def_196))
(define-fun .def_227 () Bool (= .def_198 |%{$(in_main#0)<bb.3>}#2|))
(define-fun .def_219 () Int (* (- 1) |%{$(in_main#0)<b>}#2|))
(define-fun .def_220 () Int (+ .def_12 .def_219))
(define-fun .def_221 () Bool (= .def_220 (- 1)))
(define-fun .def_214 () Bool (= .def_22 |%{$(in_main#0)<cc.2>}#2|))
(define-fun .def_206 () Bool (= .def_14 |%{$(in_main#0)<c>}#2|))
(define-fun .def_210 () Bool (and .def_197 .def_206))
(define-fun .def_216 () Bool (and .def_210 .def_214))
(define-fun .def_223 () Bool (and .def_216 .def_221))
(define-fun .def_229 () Bool (and .def_223 .def_227))
(define-fun .def_231 () Bool (or .def_229 .def_230))
(define-fun .def_249 () Bool (and .def_231 .def_248))
(define-fun .def_195 () Bool (not .def_194))
(define-fun .def_250 () Bool (and .def_195 .def_249))
(define-fun .def_256 () Bool (and .def_250 .def_255))
(define-fun .def_259 () Bool (or .def_256 .def_258))
(define-fun .def_179 () Bool (= .def_41 76))
(define-fun .def_140 () Bool (= !pc.next 108))
(define-fun .def_188 () Bool (and .def_140 .def_179))
(define-fun .def_151 () Bool (<= .def_12 .def_18))
(define-fun .def_177 () Bool (and .def_151 .def_176))
(define-fun .def_189 () Bool (and .def_177 .def_188))
(define-fun .def_185 () Bool (and .def_179 .def_184))
(define-fun .def_153 () Int (select .def_24 .def_18))
(define-fun .def_154 () Bool (<= 0 .def_153))
(define-fun .def_155 () Int (ite .def_154 1 0))
(define-fun .def_156 () Bool (= .def_155 0))
(define-fun .def_157 () Bool (not .def_156))
(define-fun .def_116 () Int (* (- 1) |!{$(in_main#0)<x>}.next|))
(define-fun .def_117 () Int (+ .def_18 .def_116))
(define-fun .def_118 () Bool (= .def_117 (- 1)))
(define-fun .def_119 () Bool (and .def_114 .def_118))
(define-fun .def_120 () Bool (and .def_104 .def_119))
(define-fun .def_121 () Bool (and .def_106 .def_120))
(define-fun .def_122 () Bool (and .def_108 .def_121))
(define-fun .def_170 () Bool (and .def_122 .def_157))
(define-fun .def_152 () Bool (not .def_151))
(define-fun .def_171 () Bool (and .def_152 .def_170))
(define-fun .def_186 () Bool (and .def_171 .def_185))
(define-fun .def_181 () Bool (= !pc.next 96))
(define-fun .def_182 () Bool (and .def_179 .def_181))
(define-fun .def_160 () Bool (and .def_92 .def_156))
(define-fun .def_161 () Bool (and .def_94 .def_160))
(define-fun .def_162 () Bool (and .def_96 .def_161))
(define-fun .def_163 () Bool (and .def_98 .def_162))
(define-fun .def_164 () Bool (and .def_100 .def_163))
(define-fun .def_165 () Bool (and .def_102 .def_164))
(define-fun .def_166 () Bool (and .def_104 .def_165))
(define-fun .def_167 () Bool (and .def_106 .def_166))
(define-fun .def_168 () Bool (and .def_108 .def_167))
(define-fun .def_169 () Bool (and .def_152 .def_168))
(define-fun .def_183 () Bool (and .def_169 .def_182))
(define-fun .def_187 () Bool (or .def_183 .def_186))
(define-fun .def_190 () Bool (or .def_187 .def_189))
(define-fun .def_144 () Bool (= !pc.next 0))
(define-fun .def_135 () Bool (= .def_41 108))
(define-fun .def_145 () Bool (and .def_135 .def_144))
(define-fun .def_81 () Bool (<= .def_14 .def_18))
(define-fun .def_125 () Bool (and .def_81 .def_92))
(define-fun .def_126 () Bool (and .def_94 .def_125))
(define-fun .def_127 () Bool (and .def_96 .def_126))
(define-fun .def_128 () Bool (and .def_98 .def_127))
(define-fun .def_129 () Bool (and .def_100 .def_128))
(define-fun .def_130 () Bool (and .def_102 .def_129))
(define-fun .def_131 () Bool (and .def_104 .def_130))
(define-fun .def_132 () Bool (and .def_106 .def_131))
(define-fun .def_133 () Bool (and .def_108 .def_132))
(define-fun .def_146 () Bool (and .def_133 .def_145))
(define-fun .def_141 () Bool (and .def_135 .def_140))
(define-fun .def_83 () Int (select .def_22 .def_18))
(define-fun .def_84 () Bool (<= 0 .def_83))
(define-fun .def_85 () Bool (not .def_84))
(define-fun .def_86 () Int (ite .def_85 1 0))
(define-fun .def_87 () Bool (= .def_86 0))
(define-fun .def_88 () Bool (not .def_87))
(define-fun .def_123 () Bool (and .def_88 .def_122))
(define-fun .def_82 () Bool (not .def_81))
(define-fun .def_124 () Bool (and .def_82 .def_123))
(define-fun .def_142 () Bool (and .def_124 .def_141))
(define-fun .def_137 () Bool (= !pc.next 128))
(define-fun .def_138 () Bool (and .def_135 .def_137))
(define-fun .def_93 () Bool (and .def_87 .def_92))
(define-fun .def_95 () Bool (and .def_93 .def_94))
(define-fun .def_97 () Bool (and .def_95 .def_96))
(define-fun .def_99 () Bool (and .def_97 .def_98))
(define-fun .def_101 () Bool (and .def_99 .def_100))
(define-fun .def_103 () Bool (and .def_101 .def_102))
(define-fun .def_105 () Bool (and .def_103 .def_104))
(define-fun .def_107 () Bool (and .def_105 .def_106))
(define-fun .def_109 () Bool (and .def_107 .def_108))
(define-fun .def_110 () Bool (and .def_82 .def_109))
(define-fun .def_139 () Bool (and .def_110 .def_138))
(define-fun .def_143 () Bool (or .def_139 .def_142))
(define-fun .def_147 () Bool (or .def_143 .def_146))
(define-fun .def_79 () Bool (and .def_44 .def_78))
(define-fun .def_75 () Bool (= |!{$(in_main#0)<bb.3>}.next| |%{$(in_main#0)<bb.3>}#1|))
(define-fun .def_73 () Bool (= |!{$(in_main#0)<cc.2>}.next| |%{$(in_main#0)<cc.2>}#1|))
(define-fun .def_71 () Bool (= |!{$(in_main#0)<aa.1>}.next| |%{$(in_main#0)<aa.1>}#1|))
(define-fun .def_69 () Bool (= |!{$(in_main#0)<x>}.next| |%{$(in_main#0)<x>}#1|))
(define-fun .def_67 () Bool (= |!{$(in_main#0)<i>}.next| 0))
(define-fun .def_65 () Bool (= |!{$(in_main#0)<c>}.next| 0))
(define-fun .def_63 () Bool (= |!{$(in_main#0)<b>}.next| 0))
(define-fun .def_61 () Bool (= |!{$(in_main#0)<a>}.next| 0))
(define-fun .def_60 () Bool (= |!{$(in_main#0)<N>}.next| |!{$(in_main#0)<$(in___VERIFIER_nondet_int#0)<h#<__VERIFIER_nondet_int.return>>>}|))
(define-fun .def_62 () Bool (and .def_60 .def_61))
(define-fun .def_64 () Bool (and .def_62 .def_63))
(define-fun .def_66 () Bool (and .def_64 .def_65))
(define-fun .def_68 () Bool (and .def_66 .def_67))
(define-fun .def_70 () Bool (and .def_68 .def_69))
(define-fun .def_72 () Bool (and .def_70 .def_71))
(define-fun .def_74 () Bool (and .def_72 .def_73))
(define-fun .def_76 () Bool (and .def_74 .def_75))
(define-fun .def_80 () Bool (and .def_76 .def_79))
(define-fun .def_148 () Bool (or .def_80 .def_147))
(define-fun .def_191 () Bool (or .def_148 .def_190))
(define-fun .def_260 () Bool (or .def_191 .def_259))
(define-fun .def_286 () Bool (! (or .def_260 .def_285) :trans true))
(define-fun .def_192 () Bool (= .def_41 96))
(define-fun .def_149 () Bool (= .def_41 128))
(define-fun .def_287 () Bool (or .def_149 .def_192))
(define-fun .def_288 () Bool (! (not .def_287) :invar-property 0 :invar-property-name ||))
(assert true)
